c assignment 3
c
p edge 7 7
e 1 2
e 1 3
e 1 4
e 1 5
e 2 1
e 2 3
e 2 6
e 2 7
e 3 1
e 3 2
e 3 4
e 3 6
e 4 1
e 4 3
e 4 5
e 4 6
e 4 7
e 5 1
e 5 4
e 5 6
e 5 7
e 6 2
e 6 3
e 6 4
e 6 5
e 6 7
e 7 2
e 7 4
e 7 5
e 7 6
